language ESSENCE' 1.0
letting values be [[0, 0, 5, 0, 0, 4, 7, 1, 9], [4, 9, 0, 1, 0, 7, 0, 0, 0], [1, 3, 7, 9, 2, 5, 4, 0, 6], [3, 7, 1, 2, 4, 9, 5, 6, 0], [5, 0, 0, 0, 1, 8, 9, 0, 0], [0, 0, 0, 5, 7, 3, 0, 4, 2], [8, 1, 0, 0, 9, 2, 6, 5, 0], [0, 0, 9, 0, 5, 0, 8, 0, 0], [6, 5, 0, 8, 3, 0, 2, 9, 7]]